n_res = 4;
rc = [ 42, 48, 37, 37 ];
n_tasks = 30;
d = [ 7, 4, 5, 1, 1, 2, 7, 4, 4, 9, 10, 7, 2, 4, 2, 7, 9, 2, 5, 3, 8, 5, 4, 5, 2, 8, 1, 4, 1, 7 ];
rr = [| 9, 6, 2, 8, 2, 8, 3, 3, 10, 9, 4, 8, 9, 4, 8, 2, 4, 2, 8, 4, 6, 10, 4, 3, 2, 5, 5, 9, 4, 4
      | 8, 5, 9, 6, 7, 3, 7, 10, 5, 3, 6, 9, 8, 5, 5, 9, 6, 8, 10, 5, 3, 8, 4, 2, 8, 9, 10, 5, 1, 5
      | 5, 6, 4, 8, 5, 8, 2, 2, 5, 5, 10, 4, 9, 3, 9, 7, 6, 8, 3, 8, 7, 10, 10, 6, 3, 8, 7, 10, 5, 4
      | 9, 7, 5, 6, 9, 8, 2, 3, 3, 7, 2, 2, 3, 3, 1, 4, 4, 4, 10, 10, 8, 2, 1, 9, 3, 8, 4, 10, 3, 9 |];
suc = [ { 2 }, 
        { 1 }, 
        { 4 }, 
        { 3 }, 
        { 6 }, 
        { 5 }, 
        { 8 }, 
        { 7 }, 
        { 10 }, 
        { 9 }, 
        { 12 }, 
        { 11 }, 
        { 14 }, 
        { 13 }, 
        { 16 }, 
        { 15 }, 
        { 18 }, 
        { 17 }, 
        { 20 }, 
        { 19 }, 
        { 22 }, 
        { 21 }, 
        { 24 }, 
        { 23 }, 
        { 26 }, 
        { 25 }, 
        { 28 }, 
        { 27 }, 
        { 30 }, 
        { 29 }]; 
